words_hard_train/9161.qaiger
aag 90 16 0 1 74
2
4
12
14
20
24
28
32
42
44
48
62
76
92
108
124
181
6 2 4
8 3 5
10 7 9
16 12 15
18 17 15
22 18 21
26 22 25
30 26 29
34 30 33
36 10 35
38 11 34
40 37 39
46 42 44
50 49 12
52 46 51
54 48 13
56 53 55
58 13 14
60 59 17
64 60 62
66 56 65
68 61 63
70 67 69
72 19 20
74 73 23
78 74 77
80 75 76
82 79 81
84 70 82
86 85 81
88 23 24
90 89 27
94 90 93
96 91 92
98 95 97
100 87 98
102 101 97
104 27 28
106 105 31
110 106 109
112 107 108
114 111 113
116 103 114
118 117 113
120 31 32
122 121 35
126 122 125
128 123 124
130 127 129
132 119 130
134 133 129
136 41 135
138 40 134
140 137 139
142 43 45
144 71 83
146 145 85
148 147 47
150 102 115
152 151 117
154 148 153
156 65 69
158 157 51
160 154 159
162 143 160
164 156 55
166 86 99
168 167 101
170 165 169
172 118 131
174 173 133
176 170 175
178 162 176
180 141 178
i0 2 y2[7]
i1 1 x1[7]
i2 2 y2[1]
i3 2 y2[2]
i4 2 y2[3]
i5 2 y2[4]
i6 2 y2[5]
i7 2 y2[6]
i8 2 y2[0]
i9 1 x1[0]
i10 1 x1[1]
i11 1 x1[2]
i12 1 x1[3]
i13 1 x1[4]
i14 1 x1[5]
i15 1 x1[6]
o0 bool[0]
c
simplified
  !=
    1
    add
      add
        invert
          1
        2 y2
      1 x1
