words_hard_train/9161.qaiger.qdimacs
p cnf 90 223
a 2 38 46 22 54 24 62 31 0
e 1 3 4 5 6 7 8 9 10 11 12 13 14 15 16 17 18 19 20 21 23 25 26 27 28 29 30 32 33 34 35 36 37 39 40 41 42 43 44 45 47 48 49 50 51 52 53 55 56 57 58 59 60 61 63 64 65 66 67 68 69 70 71 72 73 74 75 76 77 78 79 80 81 82 83 84 85 86 87 88 89 90 0
-1 -2 3 0
1 -3 0
2 -3 0
1 2 4 0
-1 -4 0
-2 -4 0
3 4 5 0
-3 -5 0
-4 -5 0
-6 7 8 0
6 -8 0
-7 -8 0
8 7 9 0
-8 -9 0
-7 -9 0
-9 10 11 0
9 -11 0
-10 -11 0
-11 12 13 0
11 -13 0
-12 -13 0
-13 14 15 0
13 -15 0
-14 -15 0
-15 16 17 0
15 -17 0
-16 -17 0
-5 17 18 0
5 -18 0
-17 -18 0
5 -17 19 0
-5 -19 0
17 -19 0
18 19 20 0
-18 -20 0
-19 -20 0
-21 -22 23 0
21 -23 0
22 -23 0
24 -6 25 0
-24 -25 0
6 -25 0
-23 25 26 0
23 -26 0
-25 -26 0
-24 6 27 0
24 -27 0
-6 -27 0
26 27 28 0
-26 -28 0
-27 -28 0
6 -7 29 0
-6 -29 0
7 -29 0
29 8 30 0
-29 -30 0
-8 -30 0
-30 -31 32 0
30 -32 0
31 -32 0
-28 32 33 0
28 -33 0
-32 -33 0
30 31 34 0
-30 -34 0
-31 -34 0
33 34 35 0
-33 -35 0
-34 -35 0
9 -10 36 0
-9 -36 0
10 -36 0
36 11 37 0
-36 -37 0
-11 -37 0
-37 38 39 0
37 -39 0
-38 -39 0
37 -38 40 0
-37 -40 0
38 -40 0
39 40 41 0
-39 -41 0
-40 -41 0
-35 -41 42 0
35 -42 0
41 -42 0
42 40 43 0
-42 -43 0
-40 -43 0
11 -12 44 0
-11 -44 0
12 -44 0
44 13 45 0
-44 -45 0
-13 -45 0
-45 46 47 0
45 -47 0
-46 -47 0
45 -46 48 0
-45 -48 0
46 -48 0
47 48 49 0
-47 -49 0
-48 -49 0
43 -49 50 0
-43 -50 0
49 -50 0
50 48 51 0
-50 -51 0
-48 -51 0
13 -14 52 0
-13 -52 0
14 -52 0
52 15 53 0
-52 -53 0
-15 -53 0
-53 54 55 0
53 -55 0
-54 -55 0
53 -54 56 0
-53 -56 0
54 -56 0
55 56 57 0
-55 -57 0
-56 -57 0
51 -57 58 0
-51 -58 0
57 -58 0
58 56 59 0
-58 -59 0
-56 -59 0
15 -16 60 0
-15 -60 0
16 -60 0
60 17 61 0
-60 -61 0
-17 -61 0
-61 62 63 0
61 -63 0
-62 -63 0
61 -62 64 0
-61 -64 0
62 -64 0
63 64 65 0
-63 -65 0
-64 -65 0
59 -65 66 0
-59 -66 0
65 -66 0
66 64 67 0
-66 -67 0
-64 -67 0
20 67 68 0
-20 -68 0
-67 -68 0
-20 -67 69 0
20 -69 0
67 -69 0
68 69 70 0
-68 -70 0
-69 -70 0
21 22 71 0
-21 -71 0
-22 -71 0
35 41 72 0
-35 -72 0
-41 -72 0
72 42 73 0
-72 -73 0
-42 -73 0
73 23 74 0
-73 -74 0
-23 -74 0
-51 57 75 0
51 -75 0
-57 -75 0
75 58 76 0
-75 -76 0
-58 -76 0
-74 76 77 0
74 -77 0
-76 -77 0
32 34 78 0
-32 -78 0
-34 -78 0
78 25 79 0
-78 -79 0
-25 -79 0
-77 79 80 0
77 -80 0
-79 -80 0
71 -80 81 0
-71 -81 0
80 -81 0
-78 27 82 0
78 -82 0
-27 -82 0
-43 49 83 0
43 -83 0
-49 -83 0
83 50 84 0
-83 -84 0
-50 -84 0
82 84 85 0
-82 -85 0
-84 -85 0
-59 65 86 0
59 -86 0
-65 -86 0
86 66 87 0
-86 -87 0
-66 -87 0
-85 87 88 0
85 -88 0
-87 -88 0
-81 -88 89 0
81 -89 0
88 -89 0
70 -89 90 0
-70 -90 0
89 -90 0
-90 0
